N = 13;
H = 5;
T = 2;

avail = array3d(1..N, 1..H, 1..T, [7, 2, 8, 4, 5, 0, 10, 2, 5, 8, 4, 8, 1, 9, 2, 2, 0, 6, 4, 10, 2, 9, 6, 4, 2, 5, 8, 10, 4, 0, 10, 4, 7, 6, 8, 2, 0, 0, 5, 4, 9, 4, 1, 2, 6, 3, 8, 4, 5, 6, 3, 4, 1, 9, 4, 10, 3, 9, 4, 5, 2, 5, 0, 9, 3, 8, 10, 9, 1, 5, 9, 1, 6, 0, 0, 2, 9, 0, 4, 1, 5, 0, 0, 0, 0, 7, 9, 3, 5, 3, 6, 1, 0, 9, 7, 10, 8, 8, 3, 0, 7, 0, 3, 4, 0, 6, 6, 2, 3, 10, 8, 7, 2, 6, 9, 2, 6, 0, 7, 0, 10, 7, 4, 4, 3, 9, 9, 3, 8, 3]);

r = array2d(1..H, 1..T, [2, 3, 5, 1, 3, 4, 1, 7, 3, 4]);
